-1 25 45 1 89 31 12 46 96 95 2 
25 -1 76 98 51 96 44 59 21 25 80 
45 76 -1 28 41 63 84 70 90 87 98 
1 98 28 -1 60 37 57 38 15 2 91 
89 51 41 60 -1 3 82 72 71 51 64 
31 96 63 37 3 -1 15 80 46 63 98 
12 44 84 57 82 15 -1 10 97 18 51 
46 59 70 38 72 80 10 -1 48 26 100 
96 21 90 15 71 46 97 48 -1 85 9 
95 25 87 2 51 63 18 26 85 -1 20 
2 80 98 91 64 98 51 100 9 20 -1 
